4	143	143	0	0	0
5	144	103	0	0	0
6	236	184	0	15	15
7	279	240	0	15	15
8	267	244	0	16	16
9	261	225	0	32	32
10	385	236	0	16	16
11	438	308	0	203	203
12	377	312	0	16	16
13	541	331	0	15	15
14	551	414	0	31	31
15	675	407	0	47	47
16	560	438	0	31	31
17	656	453	0	94	94
18	634	456	0	187	187
19	875	511	16	62	78
